objective value:                                57284
t_x1                                                1 	(obj:971)
t_x2                                                1 	(obj:203)
t_x4                                                1 	(obj:271)
t_x5                                                1 	(obj:566)
t_x6                                                1 	(obj:477)
t_x7                                                1 	(obj:268)
t_x8                                                1 	(obj:421)
t_x10                                               1 	(obj:410)
t_x12                               0.999999999999999 	(obj:1386)
t_x13                                               1 	(obj:424)
t_x14                                               1 	(obj:350)
t_x16                                               1 	(obj:580)
t_x18                                               1 	(obj:480)
t_x19                                               1 	(obj:534)
t_x20                                               1 	(obj:387)
t_x21                                               1 	(obj:633)
t_x22                                               1 	(obj:720)
t_x23                               0.999999999999997 	(obj:759)
t_x25                                               1 	(obj:681)
t_x26                                               1 	(obj:593)
t_x27                                               1 	(obj:591)
t_x29                                               1 	(obj:933)
t_x30                                               1 	(obj:462)
t_x33                                               1 	(obj:667)
t_x34                                               1 	(obj:339)
t_x36                                               1 	(obj:426)
t_x37                                               1 	(obj:61)
t_x39                                               1 	(obj:284)
t_x40                                               1 	(obj:519)
t_x41                                               1 	(obj:433)
t_x42                                               1 	(obj:424)
t_x43                                               1 	(obj:427)
t_x44                                               1 	(obj:639)
t_x45                                               1 	(obj:440)
t_x46                                               1 	(obj:438)
t_x47                                               1 	(obj:443)
t_x49                                               1 	(obj:458)
t_x50                                               1 	(obj:643)
t_x51                                               1 	(obj:430)
t_x52                                               1 	(obj:842)
t_x53                                               1 	(obj:514)
t_x54                                               1 	(obj:475)
t_x57                                               1 	(obj:538)
t_x58                                               1 	(obj:613)
t_x59                                               1 	(obj:660)
t_x60                                               1 	(obj:563)
t_x61                                               1 	(obj:217)
t_x62                                               1 	(obj:610)
t_x63                                               1 	(obj:490)
t_x64                                               1 	(obj:464)
t_x65                                               1 	(obj:428)
t_x66                                               1 	(obj:440)
t_x67                                               1 	(obj:713)
t_x68                                               1 	(obj:548)
t_x69                                               1 	(obj:540)
t_x75                                               1 	(obj:494)
t_x80                               0.999999999999995 	(obj:533)
t_x82                                               1 	(obj:708)
t_x84                                               1 	(obj:412)
t_x86                                               1 	(obj:514)
t_x93                                               1 	(obj:636)
t_x94                                               1 	(obj:401)
t_x95                                               1 	(obj:956)
t_x96                                               1 	(obj:583)
t_x100                                              1 	(obj:532)
t_x102                              0.999999999999999 	(obj:531)
t_x103                                              1 	(obj:167)
t_x106                                              1 	(obj:426)
t_x221                                              1 	(obj:570)
t_x429                              0.999999999999998 	(obj:458)
t_x603                              0.999999999999995 	(obj:468)
t_x675                              0.999999999999999 	(obj:423)
t_x681                                              1 	(obj:505)
t_x788                                              1 	(obj:824)
t_x1235                             0.999999999999998 	(obj:1017)
t_x1275                                             1 	(obj:262)
t_x1467                             0.999999999999997 	(obj:691)
t_x1473                             0.999999999999999 	(obj:467)
t_x2410                                             1 	(obj:512)
t_x2721                                             1 	(obj:650)
t_x2814                                             1 	(obj:1107)
t_x2843                                             1 	(obj:282)
t_x3506                                             1 	(obj:559)
t_x3516                                             1 	(obj:987)
t_x3932                                             1 	(obj:745)
t_x4061                                             1 	(obj:912)
t_x4093                                             1 	(obj:947)
t_x4312                             0.999999999999998 	(obj:563)
t_x4686                                             1 	(obj:269)
t_x4701                             0.999999999999999 	(obj:699)
t_x4715                             0.999999999999995 	(obj:533)
t_x4727                                             1 	(obj:567)
t_x5729                                             1 	(obj:320)
t_x5879                                             1 	(obj:484)
t_x6046                             0.999999999999997 	(obj:557)
t_x6144                                             1 	(obj:529)
t_x7030                             0.999999999999997 	(obj:383)
t_x7494                             0.999999999999993 	(obj:685)
t_x7665                                             1 	(obj:449)
t_x7911                                             1 	(obj:385)
t_x8010                                             1 	(obj:1298)
t_x8120                             0.999999999999998 	(obj:455)
t_x8636                                             1 	(obj:1003)
